35276.21,37.03,40.78
38328.22,34.08,37.53
37053.81,35.25,38.82
38233.7,34.16,37.62
37725.94,34.62,38.13
38981.5,33.51,36.9
37749.39,34.6,38.11
37602.39,34.74,38.26
37281.57,35.04,38.58
36039.65,36.24,39.91
37487.83,34.84,38.37
37479.78,34.85,38.38
34975.03,37.35,41.13
37697.31,34.65,38.16
38925.21,33.56,36.96
35677.45,36.61,40.32
34868.15,37.46,41.25
39910.14,32.73,36.04
35384.79,36.91,40.65
37215.39,35.1,38.65
